
Gurobi 12.0.3 (linux64) logging started Thu Mar 26 22:40:37 2026

Set parameter LogFile to value "/home/solar-wind/WT_Solar_results_bigM100000_thread4/case24_ieee_rts_theta0.12_epsilon0.08_gurobi_seed20000_num_gen38_N_WDR50_load_scaling_factor1_FICA_T24_num_Solar5_num_WT10.txt"
Gurobi Optimizer version 12.0.3 build v12.0.3rc0 (linux64 - "Ubuntu 22.04.5 LTS")

CPU model: Intel(R) Xeon(R) Platinum 8378A CPU @ 3.00GHz, instruction set [SSE2|AVX|AVX2|AVX512]
Thread count: 32 physical cores, 64 logical processors, using up to 4 threads

Non-default parameters:
TimeLimit  14400
MIPGap  0.001
Seed  20000
Threads  4

Academic license 2721591 - for non-commercial use only - registered to fa___@mails.neu.edu.cn
Optimize a model with 313396 rows, 1875 columns and 14925368 nonzeros
Model fingerprint: 0x1dcee82a
Model has 912 quadratic objective terms
Coefficient statistics:
  Matrix range     [2e-06, 5e+01]
  Objective range  [3e+01, 6e+01]
  QObjective range [4e-03, 2e-02]
  Bounds range     [0e+00, 0e+00]
  RHS range        [9e-03, 1e+03]
Presolve removed 197075 rows and 0 columns
Presolve time: 1.57s
Presolved: 116321 rows, 2749 columns, 1279956 nonzeros
Presolved model has 912 quadratic objective terms
Ordering time: 0.36s

Barrier statistics:
 Dense cols : 1867
 AA' NZ     : 1.309e+06
 Factor NZ  : 1.788e+06 (roughly 70 MB of memory)
 Factor Ops : 1.192e+08 (less than 1 second per iteration)
 Threads    : 4

                  Objective                Residual
Iter       Primal          Dual         Primal    Dual     Compl     Time
   0   5.85428135e+08 -3.02489958e+08  3.75e+04 1.00e+03  9.98e+05     6s
   1   4.90609127e+08 -2.32149109e+08  3.32e+04 8.86e+02  8.85e+05     6s
   2   3.94681313e+08 -3.19044266e+08  2.86e+04 7.68e+02  8.02e+05     6s
   3   1.72671185e+08 -3.32692898e+08  1.54e+04 4.12e+02  4.88e+05     6s
   4   3.57845831e+07 -6.36094224e+08  3.99e+03 1.22e+02  1.85e+05     6s
   5   1.87599868e+07 -6.22569575e+08  2.15e+03 6.58e+01  1.02e+05     6s
   6   9.58016516e+06 -6.80106354e+08  1.09e+03 3.39e+01  6.20e+04     6s
   7   2.61787629e+06 -6.11688517e+08  2.37e+02 8.64e+00  1.76e+04     6s
   8   1.59397014e+06 -5.41630893e+08  1.08e+02 3.87e+00  9.93e+03     6s
   9   1.35474002e+06 -5.17152529e+08  7.79e+01 2.77e+00  8.14e+03     6s
  10   1.10148619e+06 -4.72196728e+08  4.59e+01 1.61e+00  6.07e+03     6s
  11   9.72414553e+05 -4.00207596e+08  2.96e+01 1.05e+00  4.54e+03     6s
  12   9.19568727e+05 -3.60427945e+08  2.29e+01 8.03e-01  3.87e+03     6s
  13   8.22655236e+05 -3.15395793e+08  1.06e+01 3.69e-01  3.01e+03     7s
  14   7.64676362e+05 -1.34242722e+08  3.32e+00 1.29e-01  1.19e+03     7s
  15   7.64351015e+05 -1.32653830e+08  3.28e+00 1.27e-01  1.18e+03     7s
  16   7.62316575e+05 -1.22139885e+08  3.03e+00 1.18e-01  1.09e+03     7s
  17   7.59151750e+05 -1.09277741e+08  2.65e+00 1.03e-01  9.90e+02     7s
  18   7.38128014e+05 -1.07593404e+07  6.18e-02 8.86e-03  9.60e+01     7s
  19   7.27510546e+05 -8.38982883e+05  8.25e-03 1.51e-03  1.31e+01     7s
  20   6.93884232e+05 -4.24496643e+04  3.16e-03 5.79e-04  6.14e+00     7s
  21   6.56230962e+05  4.81168690e+05  5.09e-04 4.27e-04  1.46e+00     7s
  22   6.41385381e+05  5.94110698e+05  4.39e-05 3.96e-04  3.94e-01     7s
  23   6.39907647e+05  6.08927421e+05  1.45e-05 1.31e-04  2.58e-01     7s
  24   6.39043406e+05  6.19377294e+05  4.02e-06 3.62e-05  1.64e-01     7s
  25   6.38358507e+05  6.28013674e+05  1.01e-06 9.14e-06  8.63e-02     7s
  26   6.37951880e+05  6.33183716e+05  4.71e-08 4.27e-07  3.98e-02     7s
  27   6.37699001e+05  6.36369645e+05  8.53e-14 3.57e-08  1.11e-02     7s
  28   6.37678393e+05  6.36634925e+05  7.11e-14 2.41e-08  8.70e-03     8s
  29   6.37645044e+05  6.37065226e+05  6.39e-14 1.05e-08  4.83e-03     8s
  30   6.37634417e+05  6.37202176e+05  8.53e-14 3.95e-09  3.60e-03     8s
  31   6.37618098e+05  6.37414582e+05  4.97e-14 1.79e-09  1.70e-03     8s
  32   6.37611033e+05  6.37507918e+05  6.75e-14 6.98e-10  8.60e-04     8s
  33   6.37607114e+05  6.37559538e+05  6.75e-14 5.40e-10  3.97e-04     8s
  34   6.37605488e+05  6.37580920e+05  5.68e-14 2.07e-10  2.05e-04     8s
  35   6.37604074e+05  6.37599691e+05  6.75e-14 1.12e-10  3.65e-05     8s
  36   6.37603790e+05  6.37603461e+05  5.68e-14 2.41e-10  2.74e-06     8s
  37   6.37603767e+05  6.37603766e+05  2.84e-11 3.44e-10  7.15e-09     8s

Barrier solved model in 37 iterations and 8.34 seconds (12.11 work units)
Optimal objective 6.37603767e+05

